p cnf 2 27
-1 -2 -8012452643644848885 8012452643644848885 1 2 4.2248892360188695 0
 2 9.228667013468963
-2 2 0
 8012452643644848885 2
 8012452643644848885 7.115340313339936 0
-8012452643644848885 8012452643644848885 0
 1 8.219538814331514

-8012452643644848885 8012452643644848885 2.122334202066912
-2 1 2
-1 -2 1 2 6.558221025399441
-2 2
